NAME : rbg125a.tw.14214.tour
COMMENT : Length = 14214
COMMENT : Found by LKH [Keld Helsgaun] Sun Sep 10 01:17:37 2017
TYPE : TOUR
DIMENSION : 126
TOUR_SECTION
1
4
5
2
3
8
6
9
10
7
13
12
14
11
15
16
20
17
21
23
22
18
19
25
24
26
29
30
28
27
31
40
32
35
37
36
34
38
33
41
43
51
44
39
45
42
47
46
52
50
49
53
48
56
55
58
54
57
61
59
65
63
62
64
60
68
67
70
69
66
71
73
76
72
77
74
78
75
80
81
83
82
79
87
84
86
85
89
92
90
94
91
93
88
99
98
97
95
96
103
101
106
100
105
102
108
111
104
107
109
112
110
115
113
114
117
116
119
120
118
122
121
123
124
125
126
-1
EOF
